p wcnf 9 32 137
137 1 2 0
137 1 4 0
137 1 5 0
137 1 6 0
137 1 7 0
137 1 9 0
137 2 4 0
137 2 5 0
137 2 6 0
137 2 7 0
137 2 8 0
137 3 4 0
137 3 7 0
137 4 7 0
137 4 9 0
137 5 6 0
137 5 8 0
137 5 9 0
137 6 7 0
137 6 9 0
137 7 8 0
137 7 9 0
137 8 9 0
4 -1 0
4 -2 0
8 -3 0
5 -4 0
5 -5 0
5 -6 0
3 -7 0
6 -8 0
4 -9 0
